####################################################
# Preprocessing Li2SO4 in water
#################### SETTING UP ####################
read_restart 1.restart
kspace_style pppm/tip4p 1.0e-5  # Kspace needs to be set manualy after restart
reset_timestep 0

#################### VARIABLES ####################
variable Temp equal T_VALUE    # Temperature in K
variable Pres equal 1.0       # Pressure in atm.

variable RandomSeed equal R_VALUE # The random seed for velocity
variable tstep equal 2.0      # 1fs 
variable Ninvtpre equal 1000  # Pre-initialize the NVT ensemble (very small timesteps)
variable Ninvt equal 100000   # Initialize the NVT ensemble (0.25 ns)
variable Nrun equal Nrun_VALUE  # production in the NVT ensemble (Transport properties) 30 ns
variable Nf equal 100000      # Nfreq (fix ave/time and thermo)
variable Ne equal  1          # Nevery (fix ave/time)
variable Nr equal ${Nf}/${Ne} # Nrepeat (fix ave/time)
variable Nd equal ${Nrun}/10  # Frequency of outputting positions of atoms in the NVT ensemble

variable nb equal 10          # Number of blocks (fix ordern)
variable nbe equal 20         # Number of block elements (fix ordern)
variable Nvisc equal 5        # Nevery for viscosity (fix ordern: sample data at (Nvisc*2))
variable Ncond equal 5        # Nevery for Tconductivity (fix ordern: sample data at (Ncond*2))
variable Ndiff equal 1000     # Nevery for diffusivity (fix ordern: sample data at (Ndiff))
variable Nwrit equal 100000   # Nwrite for transport properties (fix ordern: write every (Nwrit))

variable Nrdfe equal 1000     # Nevery for RDF (fix ave/time)
variable Nrdfw equal 1000     # Nwrite for RDF (compute rdf/ext: write every (Nrdfw*Nrdfe))
variable binnum equal 2000    # Number of bins for RDF

# neigbor lists
neighbor 2.0 bin
neigh_modify every 1 delay 0 check yes

# velocity-Verlet integrator
run_style verlet

# rate of writing thermal properties to the log file
thermo_style custom step density temp press etotal
thermo_modify flush yes
thermo ${Nf}

# Reset velocity seeds for randomness between runs
velocity all create ${Temp} ${RandomSeed} 

#################### 2) Initialize the NVT ensemble ####################
######### Go to the correct temperature now ant initiate that ##########
fix integrate all rigid/nvt/small molecule temp ${Temp} ${Temp} 10.0

# Initializing the whole system with very small timesteps in the NPT ensemble
timestep 0.001
run ${Ninvtpre} 
timestep 0.01
run ${Ninvtpre} 
timestep 0.1
run ${Ninvtpre} 
timestep 0.2
run ${Ninvtpre} 
timestep 0.5
run ${Ninvtpre} 
reset_timestep 0

# continuing the initialization with the final value of timestep
unfix integrate
fix integrate all rigid/nvt/small molecule temp ${Temp} ${Temp} 100.0

timestep ${tstep}
run ${Ninvt}
reset_timestep 0

#################### 2) Production in NVT ensemble #####################
# computing average total energy, pontential energy, temperature, and pressure over time
variable TotEn equal etotal
fix TEAve all ave/time ${Ne} ${Nr} ${Nf} v_TotEn file TotalE.dat

variable PotEn equal pe
fix PEAve all ave/time ${Ne} ${Nr} ${Nf} v_PotEn file PotenE.dat

compute T all temp
fix TempAve all ave/time ${Ne} ${Nr} ${Nf} c_T file temperature.dat

compute P all pressure T
fix PressAve all ave/time ${Ne} ${Nr} ${Nf} c_P file pressure.dat


# computing self-diffusion and Onsager coefficients using the OCTP plugin
compute positions all position
fix f1 all ordern diffusivity ${Ndiff} ${Nwrit} c_positions nb ${nb} nbe ${nbe}


# computing shear and bulk viscosities  using the OCTP plugin
fix f2 all ordern viscosity ${Nvisc} ${Nwrit} c_P nb ${nb} nbe ${nbe}


# computing thermal conductivity using the OCTP plugin
compute KE all ke/atom
compute PE all pe/atom
compute ST all stress/atom NULL virial
compute heatflux all heat/flux KE PE ST
fix f3 all ordern thermalconductivity ${Ncond} ${Nwrit} c_heatflux nb ${nb} nbe ${nbe}


# computing the RDF for all group pairs
compute rdfs all rdf/ext Nbin ${binnum} Nwrite ${Nrdfw}
fix f4 all ave/time 1 1 ${Nrdfe} c_rdfs

run ${Nrun}
shell bash copy_files.sh 02ns

run ${Nrun}
shell bash copy_files.sh 04ns

run ${Nrun}
shell bash copy_files.sh 06ns

run ${Nrun}
shell bash copy_files.sh 08ns

run ${Nrun}
shell bash copy_files.sh 10ns

run ${Nrun}
shell bash copy_files.sh 12ns

run ${Nrun}
shell bash copy_files.sh 14ns

run ${Nrun}
shell bash copy_files.sh 16ns

run ${Nrun}
shell bash copy_files.sh 18ns

run ${Nrun}
shell bash copy_files.sh 20ns

run ${Nrun}
shell bash copy_files.sh 22ns

run ${Nrun}
shell bash copy_files.sh 24ns

run ${Nrun}
shell bash copy_files.sh 26ns

run ${Nrun}
shell bash copy_files.sh 28ns

run ${Nrun}
shell bash copy_files.sh 30ns

run ${Nrun}
shell bash copy_files.sh 32ns

run ${Nrun}
shell bash copy_files.sh 34ns

run ${Nrun}
shell bash copy_files.sh 36ns

run ${Nrun}
shell bash copy_files.sh 38ns

run ${Nrun}
shell bash copy_files.sh 40ns

run ${Nrun}
shell bash copy_files.sh 42ns

run ${Nrun}
shell bash copy_files.sh 44ns

run ${Nrun}
<<<<<<< HEAD
shell bash copy_files.sh 30
=======
shell bash copy_files.sh 46ns

run ${Nrun}
shell bash copy_files.sh 48ns

run ${Nrun}
shell bash copy_files.sh 50ns
>>>>>>> dd3e4343dc41c384d849cf96bc1c4c04ffdd3073

quit
